Normalized Data/p10_22_normalized_split0.vrp
NAME:p10_22_NORMALIZED_split
BEST_KNOWN: 0
COMMENT: 0
DIMENSION: 816
CAPACITY: 100
EDGE_WEIGHT_FORMAT: FUNCTION
EDGE_WEIGHT_TYPE: EXACT_2D
NODE_COORD_SECTION
1 0.00000 0.00000
2 46 -21
3 46 -21
4 46 -21
5 46 -21
6 46 -21
7 46 -21
8 -50 49
9 -50 49
10 -50 49
11 -50 49
12 -50 49
13 21 -28
14 21 -28
15 21 -28
16 21 -28
17 17 -25
18 17 -25
19 17 -25
20 17 -25
21 17 -25
22 17 -25
23 17 -25
24 -47 40
25 -47 40
26 27 35
27 27 35
28 27 35
29 27 35
30 27 35
31 27 35
32 20 42
33 20 42
34 20 42
35 20 42
36 20 42
37 20 42
38 10 -37
39 10 -37
40 10 -37
41 10 -37
42 40 -11
43 40 -11
44 40 -11
45 7 -9
46 7 -9
47 7 -9
48 3 21
49 3 21
50 3 21
51 37 37
52 37 37
53 37 37
54 -3 14
55 -3 14
56 -3 14
57 -3 14
58 -3 14
59 36 -49
60 36 -49
61 36 -49
62 36 -49
63 36 -49
64 9 -39
65 9 -39
66 9 -39
67 9 -39
68 9 -39
69 -33 45
70 -33 45
71 -33 45
72 -33 45
73 -33 45
74 -33 45
75 1 -17
76 1 -17
77 1 -17
78 34 44
79 34 44
80 34 44
81 34 44
82 26 44
83 26 44
84 35 -1
85 35 -1
86 35 -1
87 35 -1
88 35 -1
89 35 -1
90 -9 -4
91 30 -12
92 30 -12
93 30 -12
94 30 -12
95 -22 17
96 -22 17
97 -22 17
98 -50 2
99 -50 2
100 -50 2
101 -50 2
102 -50 2
103 -50 2
104 -50 2
105 35 -39
106 35 -39
107 35 -39
108 35 -39
109 -48 23
110 -48 23
111 32 8
112 26 0
113 26 0
114 26 0
115 -48 15
116 -48 15
117 -48 15
118 -48 15
119 16 -35
120 16 -35
121 16 -35
122 29 -27
123 29 -27
124 29 -27
125 29 -27
126 29 -27
127 29 -27
128 24 -49
129 24 -49
130 24 -49
131 -2 -11
132 -2 -11
133 -2 -11
134 -2 -11
135 -2 -11
136 -2 -11
137 -2 -11
138 -13 -3
139 -13 -3
140 -13 -3
141 -13 -3
142 -13 -3
143 -31 6
144 -31 6
145 -31 6
146 25 -28
147 25 -28
148 6 -49
149 6 -49
150 6 -49
151 32 -42
152 32 -42
153 32 -42
154 17 7
155 17 7
156 17 7
157 4 -42
158 4 -42
159 -39 -42
160 -39 -42
161 -39 -42
162 -39 -42
163 -39 -42
164 -39 -42
165 -34 24
166 -34 24
167 -34 24
168 -34 24
169 46 40
170 46 40
171 46 40
172 46 40
173 48 -21
174 48 -21
175 48 -21
176 48 -21
177 48 -21
178 36 -1
179 36 -1
180 42 -4
181 42 -4
182 42 -4
183 42 -4
184 -5 -11
185 -5 -11
186 -5 -11
187 -5 -11
188 -5 -11
189 -5 -11
190 -5 -11
191 -14 -44
192 -14 -44
193 -14 -44
194 -14 -44
195 -14 -44
196 21 -14
197 21 -14
198 21 -14
199 21 -14
200 -14 -47
201 -14 -47
202 -14 -47
203 -14 -47
204 -14 -47
205 -14 -47
206 -14 -47
207 31 -13
208 31 -13
209 31 -13
210 31 -13
211 31 -13
212 -1 -5
213 -1 -5
214 -1 -5
215 -1 -5
216 -48 -11
217 -48 -11
218 46 -26
219 46 -26
220 46 -26
221 46 -26
222 -4 -3
223 -4 -3
224 -4 -3
225 -4 -3
226 -4 -3
227 -4 -3
228 11 -48
229 11 -48
230 11 -48
231 11 -48
232 41 4
233 41 4
234 41 4
235 -36 7
236 -36 7
237 -36 7
238 -36 7
239 -36 7
240 -36 7
241 16 36
242 16 36
243 16 36
244 16 36
245 38 42
246 38 42
247 38 42
248 -20 45
249 -20 45
250 -20 45
251 -48 27
252 -48 27
253 -48 27
254 -48 27
255 -48 27
256 -48 27
257 34 34
258 34 34
259 -17 40
260 -17 40
261 -17 40
262 0 -10
263 0 -10
264 0 -10
265 0 -10
266 0 -10
267 -41 -5
268 -41 -5
269 -41 -5
270 -41 -5
271 43 40
272 43 40
273 43 40
274 43 40
275 2 15
276 2 15
277 2 15
278 2 15
279 2 15
280 2 15
281 15 24
282 15 24
283 15 24
284 -18 23
285 -18 23
286 -18 23
287 -18 23
288 -18 23
289 -41 46
290 -41 46
291 -41 46
292 -32 -48
293 -32 -48
294 -32 -48
295 -32 -48
296 -32 -48
297 -32 -48
298 -48 23
299 -48 23
300 5 -17
301 5 -17
302 5 -17
303 5 -17
304 5 -17
305 15 8
306 15 8
307 15 8
308 15 8
309 1 -17
310 1 -17
311 18 -28
312 18 -28
313 18 -28
314 -44 49
315 -44 49
316 -44 49
317 -44 49
318 44 7
319 44 7
320 44 7
321 44 7
322 44 7
323 44 7
324 36 -25
325 36 -25
326 36 -25
327 23 4
328 23 4
329 -15 -7
330 -15 -7
331 -15 -7
332 -15 -7
333 9 26
334 9 26
335 9 26
336 9 26
337 9 26
338 37 33
339 37 33
340 37 33
341 37 33
342 19 -22
343 19 -22
344 19 -22
345 19 -22
346 19 -22
347 -42 -45
348 -42 -45
349 -42 -45
350 -42 -45
351 -42 -45
352 -42 -45
353 41 21
354 41 21
355 41 21
356 -2 -22
357 -2 -22
358 -2 -22
359 24 -2
360 24 -2
361 24 -2
362 24 -2
363 24 -2
364 44 38
365 44 38
366 44 38
367 44 38
368 0 -36
369 0 -36
370 0 -36
371 0 -36
372 0 -36
373 -13 -38
374 -13 -38
375 -13 -38
376 26 41
377 26 41
378 26 41
379 26 41
380 26 41
381 -5 40
382 -1 11
383 -1 11
384 -1 11
385 -1 11
386 -1 11
387 -1 11
388 -1 11
389 34 29
390 34 29
391 34 29
392 34 29
393 34 29
394 34 29
395 13 -44
396 13 -44
397 13 -44
398 13 -44
399 13 -44
400 21 -23
401 21 -23
402 21 -23
403 -41 23
404 -41 23
405 -41 23
406 -41 23
407 -30 -30
408 -30 -30
409 28 -12
410 28 -12
411 28 -12
412 28 -12
413 28 -12
414 28 23
415 28 23
416 28 23
417 28 23
418 -32 31
419 -32 31
420 -32 31
421 -32 31
422 -32 31
423 -32 31
424 6 -4
425 6 -4
426 6 -4
427 6 -4
428 30 -24
429 30 -24
430 -38 44
431 -38 44
432 -38 44
433 -38 44
434 6 -41
435 6 -41
436 6 -41
437 4 24
438 4 24
439 4 24
440 4 24
441 4 24
442 4 24
443 22 30
444 22 30
445 22 30
446 22 30
447 22 30
448 22 30
449 -7 14
450 -7 14
451 -7 14
452 -7 14
453 -7 14
454 -14 -49
455 -14 -49
456 -14 -49
457 -12 -19
458 -12 -19
459 -12 -19
460 -12 -19
461 -12 -19
462 38 -18
463 38 -18
464 38 -18
465 38 -18
466 38 -18
467 -27 -16
468 -27 -16
469 -27 -16
470 -27 -16
471 -27 -16
472 45 -30
473 45 -30
474 45 -30
475 45 -30
476 45 -30
477 -9 41
478 -9 41
479 -9 41
480 -6 39
481 -6 39
482 -6 39
483 -6 39
484 22 9
485 22 9
486 22 9
487 22 9
488 -18 -31
489 -18 -31
490 -18 -31
491 -18 -31
492 -18 -31
493 -39 29
494 -39 29
495 -5 -9
496 -5 -9
497 -5 -9
498 -5 -9
499 23 -50
500 23 -50
501 23 -50
502 23 -50
503 23 -50
504 23 -50
505 -42 42
506 -42 42
507 -42 42
508 -42 42
509 -19 43
510 -19 43
511 -19 43
512 -19 43
513 27 -22
514 27 -22
515 27 -22
516 27 -22
517 -33 -7
518 -33 -7
519 -33 -7
520 -33 -7
521 -33 -7
522 -33 -7
523 -33 -7
524 45 -50
525 45 -50
526 45 -50
527 45 -50
528 11 20
529 11 20
530 11 20
531 11 20
532 32 36
533 32 36
534 32 36
535 32 36
536 -39 -41
537 -39 -41
538 -39 -41
539 -39 -41
540 -39 -41
541 -39 -41
542 37 -26
543 37 -26
544 37 -26
545 37 -26
546 -22 15
547 -22 15
548 -22 15
549 -22 15
550 -6 25
551 -6 25
552 -6 25
553 -6 25
554 -37 37
555 -37 37
556 -37 37
557 -37 37
558 -37 37
559 -37 37
560 34 12
561 34 12
562 28 -22
563 28 -22
564 28 -22
565 28 -22
566 9 48
567 9 48
568 9 48
569 9 48
570 -1 -29
571 -1 -29
572 -43 -26
573 -43 -26
574 -10 1
575 -10 1
576 -44 9
577 -44 9
578 -44 9
579 -44 9
580 -44 9
581 11 1
582 11 1
583 11 1
584 11 1
585 11 1
586 43 -39
587 43 -39
588 43 -39
589 43 -39
590 43 -39
591 43 -39
592 43 -39
593 -34 38
594 -34 38
595 -34 38
596 -34 38
597 -34 38
598 -34 38
599 -34 38
600 -26 -11
601 -26 -11
602 -26 -11
603 -26 -11
604 -26 -11
605 -43 34
606 -43 34
607 -43 34
608 -43 34
609 -43 34
610 -43 34
611 -13 11
612 -13 11
613 -13 11
614 -13 11
615 -13 11
616 -13 11
617 15 -2
618 15 -2
619 15 -2
620 34 5
621 34 5
622 34 5
623 34 5
624 -9 33
625 -9 33
626 -49 -3
627 -49 -3
628 -49 -3
629 -10 1
630 -10 1
631 -10 1
632 -10 1
633 -10 1
634 -10 1
635 35 16
636 35 16
637 35 16
638 35 16
639 -2 -4
640 -2 -4
641 -2 -4
642 -2 -4
643 3 -15
644 3 -15
645 3 -15
646 3 -15
647 3 -15
648 18 24
649 18 24
650 -38 26
651 -38 26
652 -1 29
653 -1 29
654 -1 29
655 -11 -42
656 -11 -42
657 -11 -42
658 -11 -42
659 -11 -42
660 -11 -42
661 -45 16
662 -45 16
663 -45 16
664 -45 16
665 2 36
666 2 36
667 31 30
668 31 30
669 31 30
670 31 30
671 31 30
672 31 30
673 -31 21
674 -31 21
675 -31 21
676 -31 21
677 -45 -17
678 -45 -17
679 -45 -17
680 -45 -17
681 -45 -17
682 34 -14
683 34 -14
684 34 -14
685 -30 44
686 -30 44
687 -30 44
688 -19 35
689 -19 35
690 -19 35
691 39 43
692 39 43
693 39 43
694 39 43
695 39 43
696 -49 37
697 -49 37
698 -49 37
699 -45 20
700 -45 20
701 -45 20
702 -45 20
703 -45 20
704 -45 20
705 -49 -30
706 -49 -30
707 -49 -30
708 -49 -30
709 33 2
710 33 2
711 33 2
712 -28 -20
713 -28 -20
714 -28 -20
715 27 24
716 27 24
717 27 24
718 27 24
719 -34 27
720 -34 27
721 -34 27
722 -34 27
723 -26 18
724 -26 18
725 -5 -22
726 -5 -22
727 -5 -22
728 -5 -22
729 -5 -22
730 -31 -36
731 -31 -36
732 -31 -36
733 -31 -36
734 -31 -36
735 -13 -33
736 -13 -33
737 -13 -33
738 -13 -33
739 -13 -33
740 -36 14
741 -36 14
742 -36 14
743 -36 14
744 -7 11
745 -7 11
746 -49 -6
747 -49 -6
748 28 -6
749 28 -6
750 28 -6
751 28 -6
752 -44 11
753 -44 11
754 -44 11
755 -44 11
756 24 -6
757 24 -6
758 24 -6
759 24 -6
760 42 -42
761 42 -42
762 -22 -24
763 -22 -24
764 -22 -24
765 -22 -24
766 1 -17
767 1 -17
768 1 -17
769 20 -35
770 20 -35
771 -35 -3
772 -35 -3
773 -35 -3
774 -35 -3
775 -38 -27
776 -38 -27
777 -38 -27
778 -38 -27
779 29 -49
780 29 -49
781 29 -49
782 29 -49
783 -13 -38
784 -13 -38
785 -13 -38
786 -13 -38
787 -13 -38
788 6 18
789 6 18
790 6 18
791 6 18
792 6 18
793 6 18
794 -17 -41
795 -17 -41
796 -17 -41
797 -17 -41
798 -17 -41
799 -17 -41
800 19 11
801 19 11
802 -12 -36
803 -12 -36
804 -12 -36
805 1 -8
806 1 -8
807 1 -8
808 1 -8
809 1 -8
810 1 -8
811 12 25
812 12 25
813 12 25
814 12 25
815 12 25
816 12 25
DEMAND_SECTION
1 0
2 20
3 20
4 5
5 1
6 1
7 1
8 20
9 20
10 5
11 1
12 1
13 20
14 5
15 1
16 1
17 20
18 20
19 5
20 1
21 1
22 1
23 1
24 20
25 20
26 20
27 10
28 1
29 1
30 1
31 1
32 20
33 10
34 1
35 1
36 1
37 1
38 10
39 1
40 1
41 1
42 20
43 5
44 1
45 20
46 20
47 5
48 20
49 10
50 1
51 20
52 20
53 1
54 20
55 10
56 1
57 1
58 1
59 20
60 5
61 1
62 1
63 1
64 20
65 1
66 1
67 1
68 1
69 10
70 5
71 1
72 1
73 1
74 1
75 20
76 5
77 1
78 10
79 1
80 1
81 1
82 20
83 5
84 20
85 10
86 1
87 1
88 1
89 1
90 20
91 10
92 1
93 1
94 1
95 20
96 5
97 1
98 20
99 20
100 5
101 1
102 1
103 1
104 1
105 20
106 20
107 5
108 1
109 20
110 20
111 20
112 20
113 5
114 1
115 20
116 20
117 1
118 1
119 20
120 1
121 1
122 20
123 10
124 1
125 1
126 1
127 1
128 20
129 20
130 1
131 20
132 20
133 5
134 1
135 1
136 1
137 1
138 20
139 10
140 5
141 1
142 1
143 20
144 20
145 1
146 20
147 5
148 20
149 20
150 10
151 20
152 10
153 5
154 20
155 10
156 5
157 20
158 20
159 20
160 10
161 1
162 1
163 1
164 1
165 10
166 5
167 1
168 1
169 20
170 10
171 1
172 1
173 20
174 5
175 1
176 1
177 1
178 20
179 5
180 20
181 10
182 1
183 1
184 20
185 20
186 5
187 1
188 1
189 1
190 1
191 20
192 10
193 5
194 1
195 1
196 20
197 1
198 1
199 1
200 20
201 20
202 5
203 1
204 1
205 1
206 1
207 20
208 5
209 1
210 1
211 1
212 20
213 5
214 1
215 1
216 20
217 5
218 20
219 10
220 5
221 1
222 20
223 10
224 1
225 1
226 1
227 1
228 20
229 5
230 1
231 1
232 10
233 1
234 1
235 20
236 10
237 5
238 1
239 1
240 1
241 20
242 1
243 1
244 1
245 20
246 5
247 1
248 10
249 5
250 1
251 20
252 10
253 1
254 1
255 1
256 1
257 10
258 5
259 20
260 1
261 1
262 20
263 20
264 5
265 1
266 1
267 20
268 10
269 1
270 1
271 20
272 20
273 5
274 1
275 20
276 10
277 1
278 1
279 1
280 1
281 20
282 10
283 5
284 10
285 1
286 1
287 1
288 1
289 20
290 10
291 1
292 20
293 5
294 1
295 1
296 1
297 1
298 20
299 10
300 20
301 20
302 5
303 1
304 1
305 20
306 10
307 1
308 1
309 20
310 20
311 10
312 5
313 1
314 20
315 1
316 1
317 1
318 20
319 20
320 5
321 1
322 1
323 1
324 20
325 20
326 5
327 20
328 1
329 20
330 10
331 5
332 1
333 20
334 10
335 1
336 1
337 1
338 20
339 20
340 5
341 1
342 10
343 5
344 1
345 1
346 1
347 20
348 10
349 1
350 1
351 1
352 1
353 10
354 5
355 1
356 20
357 20
358 5
359 10
360 1
361 1
362 1
363 1
364 10
365 1
366 1
367 1
368 20
369 20
370 5
371 1
372 1
373 20
374 20
375 10
376 20
377 20
378 5
379 1
380 1
381 20
382 20
383 10
384 5
385 1
386 1
387 1
388 1
389 20
390 20
391 1
392 1
393 1
394 1
395 20
396 10
397 5
398 1
399 1
400 20
401 5
402 1
403 20
404 10
405 1
406 1
407 20
408 1
409 20
410 10
411 1
412 1
413 1
414 10
415 5
416 1
417 1
418 10
419 5
420 1
421 1
422 1
423 1
424 20
425 10
426 1
427 1
428 20
429 10
430 20
431 5
432 1
433 1
434 20
435 20
436 10
437 20
438 20
439 5
440 1
441 1
442 1
443 20
444 20
445 1
446 1
447 1
448 1
449 10
450 5
451 1
452 1
453 1
454 10
455 5
456 1
457 10
458 1
459 1
460 1
461 1
462 20
463 20
464 1
465 1
466 1
467 10
468 1
469 1
470 1
471 1
472 10
473 5
474 1
475 1
476 1
477 10
478 5
479 1
480 20
481 1
482 1
483 1
484 20
485 1
486 1
487 1
488 20
489 10
490 1
491 1
492 1
493 20
494 20
495 20
496 20
497 1
498 1
499 20
500 5
501 1
502 1
503 1
504 1
505 10
506 1
507 1
508 1
509 20
510 20
511 5
512 1
513 20
514 20
515 5
516 1
517 20
518 10
519 5
520 1
521 1
522 1
523 1
524 20
525 1
526 1
527 1
528 10
529 1
530 1
531 1
532 20
533 10
534 1
535 1
536 20
537 10
538 5
539 1
540 1
541 1
542 20
543 20
544 1
545 1
546 20
547 20
548 1
549 1
550 20
551 10
552 5
553 1
554 20
555 10
556 5
557 1
558 1
559 1
560 20
561 10
562 20
563 10
564 5
565 1
566 20
567 1
568 1
569 1
570 20
571 10
572 20
573 1
574 20
575 10
576 20
577 10
578 1
579 1
580 1
581 10
582 5
583 1
584 1
585 1
586 20
587 20
588 5
589 1
590 1
591 1
592 1
593 20
594 20
595 5
596 1
597 1
598 1
599 1
600 20
601 20
602 5
603 1
604 1
605 20
606 20
607 1
608 1
609 1
610 1
611 20
612 20
613 1
614 1
615 1
616 1
617 20
618 20
619 5
620 10
621 1
622 1
623 1
624 20
625 1
626 20
627 5
628 1
629 20
630 5
631 1
632 1
633 1
634 1
635 10
636 5
637 1
638 1
639 20
640 5
641 1
642 1
643 20
644 1
645 1
646 1
647 1
648 10
649 5
650 20
651 20
652 10
653 5
654 1
655 20
656 10
657 5
658 1
659 1
660 1
661 10
662 5
663 1
664 1
665 20
666 20
667 10
668 5
669 1
670 1
671 1
672 1
673 20
674 1
675 1
676 1
677 10
678 5
679 1
680 1
681 1
682 10
683 5
684 1
685 20
686 1
687 1
688 20
689 1
690 1
691 10
692 5
693 1
694 1
695 1
696 10
697 5
698 1
699 20
700 5
701 1
702 1
703 1
704 1
705 20
706 10
707 5
708 1
709 20
710 5
711 1
712 20
713 20
714 10
715 10
716 1
717 1
718 1
719 20
720 1
721 1
722 1
723 20
724 20
725 10
726 5
727 1
728 1
729 1
730 20
731 10
732 1
733 1
734 1
735 20
736 20
737 5
738 1
739 1
740 20
741 20
742 5
743 1
744 20
745 10
746 10
747 5
748 20
749 1
750 1
751 1
752 20
753 10
754 5
755 1
756 10
757 1
758 1
759 1
760 10
761 5
762 10
763 5
764 1
765 1
766 20
767 10
768 5
769 20
770 5
771 20
772 10
773 5
774 1
775 20
776 1
777 1
778 1
779 20
780 10
781 5
782 1
783 10
784 1
785 1
786 1
787 1
788 10
789 5
790 1
791 1
792 1
793 1
794 20
795 20
796 1
797 1
798 1
799 1
800 20
801 10
802 10
803 5
804 1
805 10
806 5
807 1
808 1
809 1
810 1
811 20
812 20
813 1
814 1
815 1
816 1
DEPOT_SECTION
1
-1
EOF