Normalized Data/p10_22_normalized_split0.sol
815 -14 15 13 12 768 769 120 118 119 64 63 67 65 66 -20 16 17 19 22 18 21 401 400 399 341 342 345 -24 23 695 696 697 605 606 607 604 608 609 -33 31 36 35 34 32 567 565 566 568 664 665 384 387 -37 40 39 38 396 397 398 227 229 230 228 149 147 148 -41 43 42 462 465 464 461 681 683 206 410 -46 44 45 303 299 302 301 300 809 806 808 -51 52 50 245 246 244 690 691 694 692 693 78 79 80 77 446 445 -76 308 765 357 355 356 728 727 724 -89 329 330 331 328 137 139 138 140 141 -91 93 92 90 544 543 542 541 324 325 323 -94 723 722 545 546 -107 104 106 105 150 152 151 310 311 312 -113 112 86 88 85 84 87 83 178 177 180 181 179 182 359 361 -127 129 128 500 502 498 501 503 499 395 394 -132 131 130 134 133 135 136 264 262 265 263 261 -153 155 154 799 800 305 307 306 304 -166 167 650 492 493 719 720 718 721 287 283 284 285 286 -189 186 185 187 183 184 188 495 496 494 497 -198 197 195 196 562 561 514 512 515 513 -209 207 210 208 682 463 2 6 5 4 3 1 176 175 174 173 172 218 -214 213 211 212 641 640 638 639 221 222 223 226 225 224 -219 220 217 474 473 471 475 472 585 590 589 591 588 587 586 760 -238 236 237 234 235 577 575 576 578 579 752 751 -239 754 753 297 108 298 109 700 698 702 -241 243 240 242 82 81 377 375 376 378 379 648 -250 255 252 254 251 253 699 701 703 116 117 114 115 660 662 661 663 -258 260 259 510 509 508 511 247 249 248 476 478 477 -269 268 266 267 215 216 678 679 677 680 676 774 775 776 777 -271 272 270 273 171 170 169 168 364 363 365 366 340 339 715 717 -278 275 274 276 436 441 438 440 651 653 652 551 549 -279 277 48 47 49 439 437 334 335 332 336 333 791 790 787 789 -314 315 316 313 11 8 9 7 10 504 506 505 507 557 556 555 -326 327 110 559 560 485 486 484 483 -343 344 146 145 122 123 121 125 124 126 428 427 564 563 -360 362 358 111 749 748 750 747 412 411 408 409 755 758 756 757 -383 385 386 381 382 53 55 57 56 54 743 744 -407 158 160 163 161 162 159 348 346 351 349 350 347 291 296 293 295 292 294 457 459 -416 415 391 392 393 337 338 257 256 533 531 532 534 670 667 -420 417 418 419 421 422 558 553 554 593 598 592 594 597 595 596 -425 426 423 424 617 618 616 583 584 582 581 580 -432 429 431 430 289 288 290 68 69 73 70 71 72 685 686 684 -434 435 433 157 156 570 -448 451 450 452 449 613 612 611 610 573 628 -453 455 454 200 205 201 203 202 199 204 190 193 194 456 460 458 -491 489 490 487 488 730 729 406 761 764 762 763 -527 530 529 528 280 281 282 814 812 811 810 813 815 792 788 -548 547 674 675 673 672 405 403 402 404 649 164 165 96 95 615 614 -550 552 623 624 482 480 481 479 380 688 689 687 -569 367 370 368 371 369 738 737 734 736 725 726 -571 572 707 705 706 704 540 539 538 536 535 537 733 731 732 -601 600 516 522 519 521 520 518 517 771 773 770 772 -603 602 599 467 469 466 470 468 711 712 713 -622 620 621 619 318 319 320 317 321 322 233 231 232 708 710 709 -629 633 103 101 98 102 97 99 100 625 626 627 745 746 -630 632 631 574 143 144 142 742 739 740 741 -636 634 637 635 352 353 354 389 388 390 413 414 714 716 -644 642 646 645 643 309 767 766 74 75 804 805 807 -647 443 442 444 447 30 28 26 29 25 27 671 666 669 668 -655 657 656 659 658 654 192 191 793 794 797 798 796 795 -735 786 783 784 372 373 782 785 374 802 801 803 -759 525 524 523 526 59 61 62 58 60 780 781 779 778 0 





OBJ=
5383.949
BEST_KNOWN=
0.000